32      4       
10      10      10      10      
0       0       0       0       0       21      2       3       4       5       6       7       8       9       11      12      13      22      23      24      25      26      27      28      29      
 30      31      
5       0       1       1       1       3       15      16      17      
3       0       4       5       5       2       15      16      
7       1       8       0       3       2       17      21      
1       4       1       0       6       2       16      20      
3       1       6       0       9       2       14      19      
4       4       3       0       5       2       15      18      
8       4       4       2       0       1       10      
5       5       7       3       0       1       10      
5       4       0       2       5       1       14      
1       4       0       5       5       1       15      
5       0       3       4       4       1       14      
9       9       1       0       3       1       14      
6       0       3       4       1       1       32      
8       0       8       8       5       1       32      
5       2       0       5       5       1       32      
2       7       5       0       7       1       32      
8       2       4       0       1       1       32      
6       5       0       3       2       1       32      
2       5       0       7       4       1       32      
7       4       0       3       4       1       32      
8       0       2       1       3       1       32      
3       6       8       5       0       1       32      
9       2       3       0       2       1       32      
9       4       1       0       6       1       32      
3       3       4       0       4       1       32      
3       5       4       0       3       1       32      
6       0       3       3       5       1       32      
5       5       3       7       0       1       32      
6       2       0       3       2       1       32      
6       4       6       5       0       1       32      
0       0       0       0       0       0       
